\ENCODING=ISO-8859-1
\Problem name: 

Minimize
 obj1: 40 x_1 + 60 x_2 + 47 x_3 + 68 x_4 + 60 x_5 + t
Subject To
 c1: - x_1 - x_2 - x_3 - x_4 - x_5 >= -5
Bounds
 0 <= x_1 <= 1
 0 <= x_2 <= 1
 0 <= x_3 <= 1
 0 <= x_4 <= 1
 0 <= x_5 <= 1
      t >= -1592
Binaries
 x_1  x_2  x_3  x_4  x_5 
End
